(set-info :source |printed by MathSAT|)
(declare-fun |.x{939}| () Int)
(declare-fun |.x{985}| () Int)
(declare-fun |.x{940}| () (Array Int Int))
(declare-fun |.x{986}| () (Array Int Int))
(declare-fun |.x{941}| () (Array Int Int))
(declare-fun |.x{987}| () (Array Int Int))
(declare-fun |.x{942}| () (Array Int (Array Int Int)))
(declare-fun |.x{988}| () (Array Int (Array Int Int)))
(declare-fun |.x{943}| () Int)
(declare-fun |.x{989}| () Int)
(declare-fun |.x{944}| () Int)
(declare-fun |.x{990}| () Int)
(declare-fun |.x{945}| () (Array Int Int))
(declare-fun |.x{991}| () (Array Int Int))
(declare-fun |.x{946}| () (Array Int Int))
(declare-fun |.x{992}| () (Array Int Int))
(declare-fun |.x{947}| () Int)
(declare-fun |.x{993}| () Int)
(declare-fun |.x{948}| () Int)
(declare-fun |.x{994}| () Int)
(declare-fun |.x{949}| () Int)
(declare-fun |.x{995}| () Int)
(declare-fun |.x{950}| () Int)
(declare-fun |.x{996}| () Int)
(declare-fun |.x{951}| () Int)
(declare-fun |.x{997}| () Int)
(declare-fun |.x{952}| () Int)
(declare-fun |.x{998}| () Int)
(declare-fun |.x{953}| () Int)
(declare-fun |.x{999}| () Int)
(declare-fun |.x{954}| () Int)
(declare-fun |.x{1000}| () Int)
(declare-fun |.x{955}| () Int)
(declare-fun |.x{1001}| () Int)
(declare-fun |.x{956}| () Int)
(declare-fun |.x{1002}| () Int)
(declare-fun |.x{957}| () Int)
(declare-fun |.x{1003}| () Int)
(declare-fun |.x{958}| () Int)
(declare-fun |.x{1004}| () Int)
(declare-fun |.x{959}| () Int)
(declare-fun |.x{1005}| () Int)
(declare-fun |.x{960}| () Int)
(declare-fun |.x{1006}| () Int)
(declare-fun |.x{984}| () Bool)
(declare-fun |.x{961}| () Bool)
(declare-fun |.loc{5}| () Bool)
(declare-fun |.loc{9}| () Bool)
(declare-fun |.loc{6}| () Bool)
(declare-fun |.loc{10}| () Bool)
(declare-fun |.loc{7}| () Bool)
(declare-fun |.loc{11}| () Bool)
(declare-fun |.loc{8}| () Bool)
(declare-fun |.loc{12}| () Bool)
(declare-fun |.x{91}| () (Array Int Int))
(declare-fun |.x{371}| () Int)
(define-fun .def_56 () Bool (! |.loc{6}| :next |.loc{10}|))
(define-fun .def_62 () Bool (not .def_56))
(define-fun .def_54 () Bool (! |.loc{5}| :next |.loc{9}|))
(define-fun .def_386 () Bool (and .def_54 .def_62))
(define-fun .def_58 () Bool (! |.loc{7}| :next |.loc{11}|))
(define-fun .def_107 () Bool (not .def_58))
(define-fun .def_387 () Bool (and .def_107 .def_386))
(define-fun .def_60 () Bool (! |.loc{8}| :next |.loc{12}|))
(define-fun .def_363 () Bool (not .def_60))
(define-fun .def_388 () Bool (and .def_363 .def_387))
(define-fun .def_18 () Int (! |.x{944}| :next |.x{990}|))
(define-fun .def_16 () Int (! |.x{943}| :next |.x{989}|))
(define-fun .def_381 () Bool (= .def_16 .def_18))
(define-fun .def_26 () Int (! |.x{948}| :next |.x{994}|))
(define-fun .def_24 () Int (! |.x{947}| :next |.x{993}|))
(define-fun .def_380 () Bool (= .def_24 .def_26))
(define-fun .def_382 () Bool (and .def_380 .def_381))
(define-fun .def_22 () (Array Int Int) (! |.x{946}| :next |.x{992}|))
(define-fun .def_20 () (Array Int Int) (! |.x{945}| :next |.x{991}|))
(define-fun .def_379 () Bool (= .def_20 .def_22))
(define-fun .def_383 () Bool (and .def_379 .def_382))
(define-fun .def_52 () Bool (! |.x{984}| :next |.x{961}|))
(define-fun .def_378 () Bool (not .def_52))
(define-fun .def_384 () Bool (and .def_378 .def_383))
(define-fun .def_12 () (Array Int Int) (! |.x{941}| :next |.x{987}|))
(define-fun .def_10 () (Array Int Int) (! |.x{940}| :next |.x{986}|))
(define-fun .def_377 () Bool (= .def_10 .def_12))
(define-fun .def_385 () Bool (and .def_377 .def_384))
(define-fun .def_389 () Bool (! (and .def_385 .def_388) :init true))
(define-fun .def_374 () Bool (= .def_26 |.x{994}|))
(define-fun .def_372 () Bool (= .def_22 |.x{992}|))
(define-fun .def_370 () Bool (= .def_18 |.x{990}|))
(define-fun .def_14 () (Array Int (Array Int Int)) (! |.x{942}| :next |.x{988}|))
(define-fun .def_368 () Bool (= .def_14 |.x{988}|))
(define-fun .def_366 () Bool (= .def_12 |.x{987}|))
(define-fun .def_8 () Int (! |.x{939}| :next |.x{985}|))
(define-fun .def_364 () Bool (= .def_8 |.x{985}|))
(define-fun .def_365 () Bool (and .def_363 .def_364))
(define-fun .def_367 () Bool (and .def_365 .def_366))
(define-fun .def_369 () Bool (and .def_367 .def_368))
(define-fun .def_371 () Bool (and .def_369 .def_370))
(define-fun .def_373 () Bool (and .def_371 .def_372))
(define-fun .def_375 () Bool (and .def_373 .def_374))
(define-fun .def_360 () Bool (= .def_24 |.x{993}|))
(define-fun .def_358 () Bool (= .def_20 |.x{991}|))
(define-fun .def_356 () Bool (= .def_16 |.x{989}|))
(define-fun .def_42 () Int (! |.x{956}| :next |.x{1002}|))
(define-fun .def_124 () Bool (= .def_42 |.x{1002}|))
(define-fun .def_34 () Int (! |.x{952}| :next |.x{998}|))
(define-fun .def_116 () Bool (= .def_34 |.x{998}|))
(define-fun .def_351 () Bool (and .def_116 .def_124))
(define-fun .def_30 () Int (! |.x{950}| :next |.x{996}|))
(define-fun .def_114 () Bool (= .def_30 |.x{996}|))
(define-fun .def_32 () Int (! |.x{951}| :next |.x{997}|))
(define-fun .def_113 () Bool (= .def_32 |.x{997}|))
(define-fun .def_115 () Bool (and .def_113 .def_114))
(define-fun .def_333 () Bool (and |.x{961}| .def_115))
(define-fun .def_38 () Int (! |.x{954}| :next |.x{1000}|))
(define-fun .def_120 () Bool (= .def_38 |.x{1000}|))
(define-fun .def_334 () Bool (and .def_120 .def_333))
(define-fun .def_135 () Bool (not .def_54))
(define-fun .def_335 () Bool (and .def_135 .def_334))
(define-fun .def_137 () Bool (= .def_10 |.x{986}|))
(define-fun .def_336 () Bool (and .def_137 .def_335))
(define-fun .def_28 () Int (! |.x{949}| :next |.x{995}|))
(define-fun .def_111 () Bool (= .def_28 |.x{995}|))
(define-fun .def_337 () Bool (and .def_111 .def_336))
(define-fun .def_328 () Bool (= |.x{1000}| 0))
(define-fun .def_326 () (Array Int Int) (store .def_10 .def_30 0))
(define-fun .def_327 () Bool (= |.x{986}| .def_326))
(define-fun .def_329 () Bool (and .def_327 .def_328))
(define-fun .def_330 () Bool (or .def_52 .def_329))
(define-fun .def_323 () Bool (= |.x{995}| |.x{1000}|))
(define-fun .def_324 () Bool (or |.x{961}| .def_323))
(define-fun .def_63 () Bool (= .def_52 |.x{961}|))
(define-fun .def_325 () Bool (and .def_63 .def_324))
(define-fun .def_331 () Bool (and .def_325 .def_330))
(define-fun .def_332 () Bool (and .def_54 .def_331))
(define-fun .def_338 () Bool (or .def_332 .def_337))
(define-fun .def_319 () Bool (and .def_56 |.loc{12}|))
(define-fun .def_320 () Bool (and |.loc{12}| .def_319))
(define-fun .def_140 () Bool (not |.loc{10}|))
(define-fun .def_321 () Bool (and .def_140 .def_320))
(define-fun .def_105 () Bool (not |.loc{11}|))
(define-fun .def_322 () Bool (and .def_105 .def_321))
(define-fun .def_339 () Bool (and .def_322 .def_338))
(define-fun .def_36 () Int (! |.x{953}| :next |.x{999}|))
(define-fun .def_146 () Bool (= .def_36 0))
(define-fun .def_309 () Bool (or .def_52 .def_146))
(define-fun .def_149 () Bool (and .def_62 .def_114))
(define-fun .def_219 () Bool (and .def_113 .def_149))
(define-fun .def_310 () Bool (and .def_219 .def_309))
(define-fun .def_311 () Bool (and .def_63 .def_310))
(define-fun .def_312 () Bool (and .def_120 .def_311))
(define-fun .def_313 () Bool (and .def_54 .def_312))
(define-fun .def_314 () Bool (and .def_137 .def_313))
(define-fun .def_315 () Bool (and |.loc{10}| .def_314))
(define-fun .def_316 () Bool (and |.loc{11}| .def_315))
(define-fun .def_109 () Bool (not |.loc{12}|))
(define-fun .def_317 () Bool (and .def_109 .def_316))
(define-fun .def_318 () Bool (and .def_111 .def_317))
(define-fun .def_340 () Bool (or .def_318 .def_339))
(define-fun .def_46 () Int (! |.x{958}| :next |.x{1004}|))
(define-fun .def_91 () Bool (= .def_46 |.x{1004}|))
(define-fun .def_65 () Bool (= .def_36 |.x{999}|))
(define-fun .def_306 () Bool (and .def_65 .def_91))
(define-fun .def_50 () Int (! |.x{960}| :next |.x{1006}|))
(define-fun .def_131 () Bool (= .def_50 |.x{1006}|))
(define-fun .def_307 () Bool (and .def_131 .def_306))
(define-fun .def_103 () Bool (not |.loc{9}|))
(define-fun .def_308 () Bool (and .def_103 .def_307))
(define-fun .def_341 () Bool (and .def_308 .def_340))
(define-fun .def_290 () Bool (<= 0 |.x{1006}|))
(define-fun .def_291 () Int (ite .def_290 1 0))
(define-fun .def_292 () Bool (= |.x{1004}| .def_291))
(define-fun .def_48 () Int (! |.x{959}| :next |.x{1005}|))
(define-fun .def_286 () Int (* 4 .def_48))
(define-fun .def_287 () Int (+ .def_32 .def_286))
(define-fun .def_180 () (Array Int Int) (select .def_14 .def_30))
(define-fun .def_288 () Int (select .def_180 .def_287))
(define-fun .def_289 () Bool (= |.x{1006}| .def_288))
(define-fun .def_293 () Bool (and .def_289 .def_292))
(define-fun .def_217 () Bool (<= .def_34 .def_48))
(define-fun .def_285 () Bool (not .def_217))
(define-fun .def_294 () Bool (and .def_285 .def_293))
(define-fun .def_284 () Bool (= |.x{999}| |.x{1004}|))
(define-fun .def_295 () Bool (and .def_284 .def_294))
(define-fun .def_296 () Bool (or .def_52 .def_295))
(define-fun .def_220 () Bool (and .def_63 .def_219))
(define-fun .def_297 () Bool (and .def_220 .def_296))
(define-fun .def_298 () Bool (and .def_120 .def_297))
(define-fun .def_299 () Bool (and .def_135 .def_298))
(define-fun .def_300 () Bool (and |.loc{9}| .def_299))
(define-fun .def_301 () Bool (and .def_137 .def_300))
(define-fun .def_302 () Bool (and |.loc{11}| .def_301))
(define-fun .def_303 () Bool (and .def_140 .def_302))
(define-fun .def_304 () Bool (and .def_109 .def_303))
(define-fun .def_305 () Bool (and .def_111 .def_304))
(define-fun .def_342 () Bool (or .def_305 .def_341))
(define-fun .def_129 () Bool (= .def_48 |.x{1005}|))
(define-fun .def_40 () Int (! |.x{955}| :next |.x{1001}|))
(define-fun .def_122 () Bool (= .def_40 |.x{1001}|))
(define-fun .def_282 () Bool (and .def_122 .def_129))
(define-fun .def_283 () Bool (and .def_58 .def_282))
(define-fun .def_343 () Bool (and .def_283 .def_342))
(define-fun .def_276 () Int (* (- 1) |.x{1005}|))
(define-fun .def_277 () Int (+ .def_48 .def_276))
(define-fun .def_278 () Bool (= .def_277 (- 1)))
(define-fun .def_279 () Bool (or |.x{961}| .def_278))
(define-fun .def_221 () Bool (and .def_65 .def_220))
(define-fun .def_222 () Bool (and .def_120 .def_221))
(define-fun .def_268 () Bool (and .def_91 .def_222))
(define-fun .def_269 () Bool (and .def_135 .def_268))
(define-fun .def_270 () Bool (and .def_137 .def_269))
(define-fun .def_271 () Bool (and |.loc{11}| .def_270))
(define-fun .def_272 () Bool (and .def_103 .def_271))
(define-fun .def_273 () Bool (and .def_140 .def_272))
(define-fun .def_274 () Bool (and .def_107 .def_273))
(define-fun .def_275 () Bool (and .def_109 .def_274))
(define-fun .def_280 () Bool (and .def_275 .def_279))
(define-fun .def_281 () Bool (and .def_111 .def_280))
(define-fun .def_344 () Bool (or .def_281 .def_343))
(define-fun .def_262 () Bool (= |.x{1005}| 0))
(define-fun .def_263 () Bool (or .def_52 .def_262))
(define-fun .def_170 () Bool (and .def_63 .def_115))
(define-fun .def_171 () Bool (and .def_65 .def_170))
(define-fun .def_172 () Bool (and .def_120 .def_171))
(define-fun .def_173 () Bool (and .def_122 .def_172))
(define-fun .def_174 () Bool (and .def_91 .def_173))
(define-fun .def_255 () Bool (and .def_131 .def_174))
(define-fun .def_256 () Bool (and .def_54 .def_255))
(define-fun .def_257 () Bool (and .def_56 .def_256))
(define-fun .def_258 () Bool (and .def_137 .def_257))
(define-fun .def_259 () Bool (and |.loc{11}| .def_258))
(define-fun .def_260 () Bool (and .def_103 .def_259))
(define-fun .def_261 () Bool (and .def_140 .def_260))
(define-fun .def_264 () Bool (and .def_261 .def_263))
(define-fun .def_265 () Bool (and .def_107 .def_264))
(define-fun .def_266 () Bool (and .def_109 .def_265))
(define-fun .def_267 () Bool (and .def_111 .def_266))
(define-fun .def_345 () Bool (or .def_267 .def_344))
(define-fun .def_44 () Int (! |.x{957}| :next |.x{1003}|))
(define-fun .def_126 () Bool (= .def_44 |.x{1003}|))
(define-fun .def_346 () Bool (and .def_126 .def_345))
(define-fun .def_192 () Bool (<= 0 |.x{371}|))
(define-fun .def_240 () Bool (not .def_192))
(define-fun .def_241 () Bool (or |.x{961}| .def_240))
(define-fun .def_242 () Bool (and .def_174 .def_241))
(define-fun .def_243 () Bool (and .def_129 .def_242))
(define-fun .def_244 () Bool (and .def_131 .def_243))
(define-fun .def_178 () Int (* 4 .def_34))
(define-fun .def_179 () Int (+ .def_32 .def_178))
(define-fun .def_181 () Int (select .def_180 .def_179))
(define-fun .def_183 () Bool (= .def_181 |.x{371}|))
(define-fun .def_184 () Bool (or .def_52 .def_183))
(define-fun .def_245 () Bool (and .def_184 .def_244))
(define-fun .def_246 () Bool (and .def_56 .def_245))
(define-fun .def_247 () Bool (and .def_135 .def_246))
(define-fun .def_248 () Bool (and |.loc{9}| .def_247))
(define-fun .def_249 () Bool (and .def_137 .def_248))
(define-fun .def_250 () Bool (and |.loc{10}| .def_249))
(define-fun .def_251 () Bool (and .def_105 .def_250))
(define-fun .def_252 () Bool (and .def_107 .def_251))
(define-fun .def_253 () Bool (and .def_109 .def_252))
(define-fun .def_254 () Bool (and .def_111 .def_253))
(define-fun .def_347 () Bool (or .def_254 .def_346))
(define-fun .def_223 () Bool (and .def_122 .def_222))
(define-fun .def_224 () Bool (and .def_126 .def_223))
(define-fun .def_225 () Bool (and .def_91 .def_224))
(define-fun .def_226 () Bool (and .def_129 .def_225))
(define-fun .def_227 () Bool (and .def_131 .def_226))
(define-fun .def_228 () Bool (and .def_58 .def_227))
(define-fun .def_229 () Bool (and .def_135 .def_228))
(define-fun .def_230 () Bool (and |.loc{9}| .def_229))
(define-fun .def_231 () Bool (and .def_137 .def_230))
(define-fun .def_232 () Bool (and |.loc{10}| .def_231))
(define-fun .def_233 () Bool (and |.loc{11}| .def_232))
(define-fun .def_237 () Bool (and .def_52 .def_233))
(define-fun .def_238 () Bool (and .def_109 .def_237))
(define-fun .def_239 () Bool (and .def_111 .def_238))
(define-fun .def_348 () Bool (or .def_239 .def_347))
(define-fun .def_218 () Bool (or .def_52 .def_217))
(define-fun .def_234 () Bool (and .def_218 .def_233))
(define-fun .def_235 () Bool (and .def_109 .def_234))
(define-fun .def_236 () Bool (and .def_111 .def_235))
(define-fun .def_349 () Bool (or .def_236 .def_348))
(define-fun .def_203 () Bool (and .def_126 .def_173))
(define-fun .def_204 () Bool (and .def_91 .def_203))
(define-fun .def_205 () Bool (and .def_129 .def_204))
(define-fun .def_206 () Bool (and .def_131 .def_205))
(define-fun .def_207 () Bool (and .def_56 .def_206))
(define-fun .def_208 () Bool (and .def_135 .def_207))
(define-fun .def_209 () Bool (and |.loc{9}| .def_208))
(define-fun .def_210 () Bool (and .def_137 .def_209))
(define-fun .def_211 () Bool (and |.loc{10}| .def_210))
(define-fun .def_212 () Bool (and .def_105 .def_211))
(define-fun .def_213 () Bool (and .def_52 .def_212))
(define-fun .def_214 () Bool (and .def_107 .def_213))
(define-fun .def_215 () Bool (and .def_109 .def_214))
(define-fun .def_216 () Bool (and .def_111 .def_215))
(define-fun .def_350 () Bool (or .def_216 .def_349))
(define-fun .def_352 () Bool (and .def_350 .def_351))
(define-fun .def_189 () Int (* (- 1) |.x{998}|))
(define-fun .def_190 () Int (+ .def_34 .def_189))
(define-fun .def_191 () Bool (= .def_190 (- 1)))
(define-fun .def_193 () Bool (and .def_191 .def_192))
(define-fun .def_194 () Bool (or |.x{961}| .def_193))
(define-fun .def_175 () Bool (and .def_129 .def_174))
(define-fun .def_176 () Bool (and .def_131 .def_175))
(define-fun .def_185 () Bool (and .def_176 .def_184))
(define-fun .def_186 () Bool (and .def_56 .def_185))
(define-fun .def_187 () Bool (and .def_135 .def_186))
(define-fun .def_195 () Bool (and .def_187 .def_194))
(define-fun .def_196 () Bool (and .def_137 .def_195))
(define-fun .def_197 () Bool (and |.loc{10}| .def_196))
(define-fun .def_198 () Bool (and .def_103 .def_197))
(define-fun .def_199 () Bool (and .def_105 .def_198))
(define-fun .def_200 () Bool (and .def_107 .def_199))
(define-fun .def_201 () Bool (and .def_109 .def_200))
(define-fun .def_202 () Bool (and .def_111 .def_201))
(define-fun .def_353 () Bool (or .def_202 .def_352))
(define-fun .def_147 () Bool (not .def_146))
(define-fun .def_148 () Bool (or .def_52 .def_147))
(define-fun .def_150 () Bool (and .def_148 .def_149))
(define-fun .def_151 () Bool (and .def_113 .def_150))
(define-fun .def_152 () Bool (and .def_116 .def_151))
(define-fun .def_153 () Bool (and .def_63 .def_152))
(define-fun .def_154 () Bool (and .def_65 .def_153))
(define-fun .def_155 () Bool (and .def_120 .def_154))
(define-fun .def_156 () Bool (and .def_122 .def_155))
(define-fun .def_157 () Bool (and .def_124 .def_156))
(define-fun .def_158 () Bool (and .def_126 .def_157))
(define-fun .def_159 () Bool (and .def_91 .def_158))
(define-fun .def_160 () Bool (and .def_129 .def_159))
(define-fun .def_161 () Bool (and .def_131 .def_160))
(define-fun .def_162 () Bool (and .def_54 .def_161))
(define-fun .def_163 () Bool (and .def_58 .def_162))
(define-fun .def_164 () Bool (and .def_137 .def_163))
(define-fun .def_165 () Bool (and .def_103 .def_164))
(define-fun .def_166 () Bool (and .def_140 .def_165))
(define-fun .def_167 () Bool (and .def_105 .def_166))
(define-fun .def_168 () Bool (and .def_109 .def_167))
(define-fun .def_169 () Bool (and .def_111 .def_168))
(define-fun .def_354 () Bool (or .def_169 .def_353))
(define-fun .def_117 () Bool (and .def_115 .def_116))
(define-fun .def_118 () Bool (and .def_63 .def_117))
(define-fun .def_119 () Bool (and .def_65 .def_118))
(define-fun .def_121 () Bool (and .def_119 .def_120))
(define-fun .def_123 () Bool (and .def_121 .def_122))
(define-fun .def_125 () Bool (and .def_123 .def_124))
(define-fun .def_127 () Bool (and .def_125 .def_126))
(define-fun .def_128 () Bool (and .def_91 .def_127))
(define-fun .def_130 () Bool (and .def_128 .def_129))
(define-fun .def_132 () Bool (and .def_130 .def_131))
(define-fun .def_133 () Bool (and .def_56 .def_132))
(define-fun .def_134 () Bool (and .def_58 .def_133))
(define-fun .def_136 () Bool (and .def_134 .def_135))
(define-fun .def_138 () Bool (and .def_136 .def_137))
(define-fun .def_139 () Bool (and .def_103 .def_138))
(define-fun .def_141 () Bool (and .def_139 .def_140))
(define-fun .def_142 () Bool (and .def_105 .def_141))
(define-fun .def_143 () Bool (and .def_52 .def_142))
(define-fun .def_144 () Bool (and .def_109 .def_143))
(define-fun .def_145 () Bool (and .def_111 .def_144))
(define-fun .def_355 () Bool (or .def_145 .def_354))
(define-fun .def_357 () Bool (and .def_355 .def_356))
(define-fun .def_359 () Bool (and .def_357 .def_358))
(define-fun .def_361 () Bool (and .def_359 .def_360))
(define-fun .def_96 () Bool (= |.x{993}| 0))
(define-fun .def_95 () Bool (= |.x{989}| 0))
(define-fun .def_97 () Bool (and .def_95 .def_96))
(define-fun .def_93 () (Array Int Int) (store .def_10 0 0))
(define-fun .def_94 () Bool (= |.x{91}| .def_93))
(define-fun .def_98 () Bool (and .def_94 .def_97))
(define-fun .def_99 () Bool (or .def_52 .def_98))
(define-fun .def_82 () (Array Int Int) (store .def_20 |.x{996}| 400000))
(define-fun .def_83 () Bool (= |.x{991}| .def_82))
(define-fun .def_78 () Bool (<= |.x{985}| |.x{996}|))
(define-fun .def_79 () Bool (not .def_78))
(define-fun .def_76 () Bool (= |.x{996}| 0))
(define-fun .def_77 () Bool (not .def_76))
(define-fun .def_80 () Bool (and .def_77 .def_79))
(define-fun .def_84 () Bool (and .def_80 .def_83))
(define-fun .def_75 () Bool (= |.x{998}| 0))
(define-fun .def_85 () Bool (and .def_75 .def_84))
(define-fun .def_73 () Int (select |.x{91}| |.x{996}|))
(define-fun .def_74 () Bool (= .def_73 0))
(define-fun .def_86 () Bool (and .def_74 .def_85))
(define-fun .def_72 () Bool (= |.x{997}| 0))
(define-fun .def_87 () Bool (and .def_72 .def_86))
(define-fun .def_69 () (Array Int Int) (store |.x{91}| |.x{996}| 1))
(define-fun .def_70 () Bool (= |.x{986}| .def_69))
(define-fun .def_88 () Bool (and .def_70 .def_87))
(define-fun .def_89 () Bool (or |.x{961}| .def_88))
(define-fun .def_64 () Bool (and .def_62 .def_63))
(define-fun .def_66 () Bool (and .def_64 .def_65))
(define-fun .def_90 () Bool (and .def_66 .def_89))
(define-fun .def_92 () Bool (and .def_90 .def_91))
(define-fun .def_100 () Bool (and .def_92 .def_99))
(define-fun .def_101 () Bool (and .def_54 .def_100))
(define-fun .def_102 () Bool (and |.loc{10}| .def_101))
(define-fun .def_104 () Bool (and .def_102 .def_103))
(define-fun .def_106 () Bool (and .def_104 .def_105))
(define-fun .def_108 () Bool (and .def_106 .def_107))
(define-fun .def_110 () Bool (and .def_108 .def_109))
(define-fun .def_112 () Bool (and .def_110 .def_111))
(define-fun .def_362 () Bool (or .def_112 .def_361))
(define-fun .def_376 () Bool (! (and .def_362 .def_375) :trans true))
(define-fun .def_390 () Bool (and .def_62 .def_135))
(define-fun .def_391 () Bool (and .def_107 .def_390))
(define-fun .def_392 () Bool (and .def_60 .def_391))
(define-fun .def_393 () Bool (and .def_52 .def_392))
(define-fun .def_394 () Bool (! (not .def_393) :invar-property 0))
(assert true)
